
Gurobi 11.0.1 (win64) logging started Tue Jun 11 21:41:54 2024

Set parameter LogFile to value "gurobi_ohne_Startl.log"
Set parameter DisplayInterval to value 1
Set parameter FeasibilityTol to value 1e-09
Set parameter OptimalityTol to value 1e-09
Gurobi Optimizer version 11.0.1 build v11.0.1rc0 (win64 - Windows 11.0 (22631.2))

CPU model: AMD Ryzen 7 5800H with Radeon Graphics, instruction set [SSE2|AVX|AVX2]
Thread count: 8 physical cores, 16 logical processors, using up to 16 threads


User-callback calls 6, time in user-callback 0.00 sec
